82
120
96	3
95	3
94	5
93	3
92	2
91	3
90	6
89	6
88	1
87	2
86	5
85	4
84	2
83	1
82	5
81	6
80	7
79	3
78	6
77	2
76	3
74	3
73	1
72	5
71	8
70	2
69	3
68	3
67	4
66	3
65	4
64	3
63	5
62	2
61	4
60	4
59	2
58	3
57	2
56	2
55	6
54	3
53	5
52	3
51	3
50	2
49	5
48	3
47	3
46	4
45	4
44	2
43	2
42	5
41	4
40	2
39	1
38	3
37	6
36	7
35	5
34	4
33	4
32	5
31	4
30	8
29	3
28	8
27	2
26	2
25	1
23	8
22	4
21	3
19	3
18	2
17	3
16	6
15	2
14	2
13	4
12	3
